192
Lattice="12.487 0.0 0.0 0.0 12.487 0.0 0.0 0.0 12.487" Properties=species:S:1:pos:R:3:mass:R:1 comment="water 64 H2O config from DeepMD raw" pbc="T T T"
O        5.73888000       8.57252000       0.20997000      15.99940000
O        7.74307000      12.21373000       3.37201000      15.99940000
O        0.90121200      10.01560000       5.86721000      15.99940000
O        8.39998000       5.98113000      10.80613000      15.99940000
O        3.16384000       0.09382900      11.86883000      15.99940000
O        6.48528000       5.91758000       1.02482500      15.99940000
O       11.81663000       6.61312000       0.64705800      15.99940000
O       11.18013000      12.11063000       4.23133000      15.99940000
O        6.74102000       2.36413000       3.10152000      15.99940000
O        7.38768000       6.70227000       3.69123000      15.99940000
O        2.26032000      10.36723000       3.37233000      15.99940000
O        7.18338000       3.07968000       5.84035000      15.99940000
O        5.44581000      10.80913000       5.84777000      15.99940000
O       10.85133000       8.58705000       7.59169000      15.99940000
O       10.68783000       9.51091000       4.75190000      15.99940000
O        5.62686000       0.94795400       6.67460000      15.99940000
O        9.34993000       1.26937000       9.96987000      15.99940000
O        4.13551000       4.41083000       8.39324000      15.99940000
O        7.18077000       7.37147000       6.77722000      15.99940000
O        3.43787000       2.60760000       5.84729000      15.99940000
O        3.10310000       1.54723000       9.31757000      15.99940000
O        0.68002100       8.41244000      11.58813000      15.99940000
O        8.54434000       9.79506000      11.15663000      15.99940000
O       10.20203000      11.98343000       1.73327000      15.99940000
O        4.85089000       7.19181000       5.19954000      15.99940000
O        3.41017000       9.00879000       6.51482000      15.99940000
O        9.67962000       4.00451000       9.49821000      15.99940000
O        7.91009000      12.32223000      12.24903000      15.99940000
O        8.76973000       4.25665000       1.66296000      15.99940000
O        9.82822000       5.69284000       4.70095000      15.99940000
O       11.30603000      10.22393000      10.35363000      15.99940000
O        0.93682400       2.04515000       6.32782000      15.99940000
O        5.75388000       4.33044000      10.67663000      15.99940000
O        9.48154000       8.68502000       0.96769600      15.99940000
O        8.55319000       5.20675000       7.09186000      15.99940000
O        4.16975000       7.71479000       8.67425000      15.99940000
O        1.85290000       6.75598000       9.85960000      15.99940000
O        2.70488000       4.79082000      11.54493000      15.99940000
O        0.49236700       6.41905000       7.55169000      15.99940000
O        6.23288000       8.83887000      10.11283000      15.99940000
O        2.62953000       3.43206000       3.12658000      15.99940000
O        4.54140000       0.10628400       3.74849000      15.99940000
O        1.60544000       6.06487000       4.69587000      15.99940000
O        5.67745000       1.82182000      11.25683000      15.99940000
O        5.93229000      11.97283000       9.64410000      15.99940000
O        5.53187000       0.02707600       1.04053400      15.99940000
O        4.77519000       3.91479000       1.55020000      15.99940000
O        8.98512000       1.06060800       5.59518000      15.99940000
O        0.32304200       2.01566000       2.83118000      15.99940000
O        7.90475000       9.44235000       3.27147000      15.99940000
O        8.04333000       9.86559000       7.60132000      15.99940000
O       11.68143000       1.23478000      11.29723000      15.99940000
O        1.20179000       2.76419000      10.59643000      15.99940000
O       11.84153000       7.26082000       3.47722000      15.99940000
O        0.13338800       9.70981000       1.55282000      15.99940000
O        2.13427000      10.95333000       9.36752000      15.99940000
O        3.92907000       8.46976000       2.44164000      15.99940000
O       11.49683000       3.43837000       0.64864100      15.99940000
O        0.56586400      12.32503000       0.83234500      15.99940000
O       10.72973000       3.08860000       4.46992000      15.99940000
O        2.35512000       6.41328000       1.33388000      15.99940000
O        9.79297000      12.15703000       7.70088000      15.99940000
O       12.47053000       3.80343000       8.25505000      15.99940000
O        0.07139900      11.85193000       7.54561000      15.99940000
H       12.33463000       7.08140000       7.50228000       1.00794000
H        9.40149000       4.49652000       2.37530000       1.00794000
H        8.95451000       6.08731000       4.64113000       1.00794000
H        6.13390000       7.73314000       0.53544900       1.00794000
H       11.02023000      12.16373000       3.24782000       1.00794000
H        0.62978400       0.46800300       1.52645000       1.00794000
H       11.94593000       0.10092000       4.45857000       1.00794000
H        2.79947000       9.59902000       3.13196000       1.00794000
H        1.87494000      10.11883000       4.23451000       1.00794000
H        7.44686000      12.39503000       2.48552000       1.00794000
H       10.29763000      12.14663000       0.78116400       1.00794000
H        3.60565000       8.12253000       7.94971000       1.00794000
H        7.69625000       6.61173000       6.99064000       1.00794000
H       12.19103000       7.15997000      12.41163000       1.00794000
H        5.78016000       5.28239000       1.18029000       1.00794000
H        2.50374000       5.62312000      10.99953000       1.00794000
H       11.89283000       7.31883000       2.53276000       1.00794000
H        4.83109000       1.28637000       6.20473000       1.00794000
H        6.28485000       1.60639000       6.56470000       1.00794000
H        8.75147000       0.41803400       4.84532000       1.00794000
H       11.91343000       3.00601000       1.41391000       1.00794000
H        9.42821000       0.64098200       9.15379000       1.00794000
H        7.39720000       5.51148000       1.04012800       1.00794000
H        3.54367000       7.49944000       9.40512000       1.00794000
H        0.14176000       0.30608100       0.11461900       1.00794000
H        7.10835000       6.46308000       2.81535000       1.00794000
H        6.92912000       3.27137000       4.95140000       1.00794000
H        1.48621000      10.86283000      10.09610000       1.00794000
H        9.79904000       9.37803000       4.56724000       1.00794000
H       10.39493000      10.47593000      10.41973000       1.00794000
H        3.55346000       4.44308000      11.35243000       1.00794000
H        3.55324000       3.28282000       6.52856000       1.00794000
H       10.37883000       3.94270000       8.82806000       1.00794000
H        3.58916000       0.83287800       8.82815000       1.00794000
H        7.53798000      11.28653000       3.49487000       1.00794000
H        4.86544000       4.33119000       9.04515000       1.00794000
H        4.14282000       9.61892000       6.42492000       1.00794000
H        1.57142000      11.53453000       8.79236000       1.00794000
H        2.82086000       5.76563000       0.76634100       1.00794000
H        8.64016000       0.88819200      10.53613000       1.00794000
H        4.06893000       5.40027000       8.22838000       1.00794000
H        5.69849000      11.03823000       9.83273000       1.00794000
H        0.13300900       9.46548000       5.69911000       1.00794000
H        9.36386000       4.00674000       0.93586600       1.00794000
H        7.68483000       9.47212000      10.75663000       1.00794000
H        2.46000000      12.27473000      12.45343000       1.00794000
H       11.46663000       9.96524000       9.39086000       1.00794000
H        4.74860000      12.15493000       0.72914800       1.00794000
H        8.17975000       6.71469000      10.25923000       1.00794000
H        5.76206000       7.23839000       5.50151000       1.00794000
H        0.63287700      10.47353000       6.70271000       1.00794000
H        6.41328000       7.28871000       7.35380000       1.00794000
H        1.90698000       2.20537000      10.23883000       1.00794000
H        1.01879800       6.48686000       6.74715000       1.00794000
H       10.06971000       7.92139000       0.95499500       1.00794000
H        3.27878000       2.26690000       8.81668000       1.00794000
H        2.54983000       9.54431000       6.39670000       1.00794000
H        2.40865000       6.44184000       4.38070000       1.00794000
H       10.11423000       2.49183000       4.89171000       1.00794000
H        5.82657000      11.60593000       6.28821000       1.00794000
H       10.23483000       3.96592000       4.53811000       1.00794000
H        7.75849000       9.03213000       7.18977000       1.00794000
H        8.83496000       9.26785000      11.86393000       1.00794000
H       10.67993000       8.84729000       6.65888000       1.00794000
H        5.96356000       3.35775000      10.80773000       1.00794000
H        5.56399000       8.37903000       9.62373000       1.00794000
H        8.26904000       1.69864000       5.72517000       1.00794000
H        1.33072000       7.33772000      10.44533000       1.00794000
H        9.37206000       5.22380000       6.61240000       1.00794000
H        4.95755000       0.41983200       2.96620000       1.00794000
H        2.56502000       2.25592000       6.01546000       1.00794000
H        1.42117000       6.38125000       1.18592000       1.00794000
H        3.04334000      12.34773000      10.94043000       1.00794000
H        0.29780800       0.19289200       7.09819000       1.00794000
H        7.67896000       9.78246000       8.49787000       1.00794000
H       10.90253000      10.42513000       4.44125000       1.00794000
H        0.62910500       2.84053000       6.74581000       1.00794000
H        4.72830000       1.76007000      11.22123000       1.00794000
H       12.20383000       1.94261000      10.93673000       1.00794000
H        6.83359000       1.49055000       3.51597000       1.00794000
H        9.26020000      12.05973000       1.93102000       1.00794000
H        4.44256000       7.89747000       5.69036000       1.00794000
H        7.60479000       2.52713000       2.68111000       1.00794000
H        6.58427000       6.60598000       4.29669000       1.00794000
H        5.91129000       8.76143000      11.02563000       1.00794000
H        4.47595000       8.29105000       3.22351000       1.00794000
H        6.20772000      11.86413000       8.71230000       1.00794000
H        8.24455000      11.48553000      11.88623000       1.00794000
H        9.48577000       0.12260800       6.88174000       1.00794000
H        3.01943000       3.03389000       3.91855000       1.00794000
H        6.99588000      12.05883000       0.04768000       1.00794000
H       11.41323000       2.70358000       0.02922900       1.00794000
H        3.87866000       3.68148000       1.74459000       1.00794000
H        6.05347000       1.16444000      10.61633000       1.00794000
H        2.10153000       4.15860000       3.37822000       1.00794000
H       11.75763000       5.66477000       0.33744800       1.00794000
H        7.56919000       3.84098000       6.22346000       1.00794000
H        0.00127600       9.08984000      11.20923000       1.00794000
H        1.02967000       8.84540000      12.38730000       1.00794000
H        7.35102000       8.71674000       3.48733000       1.00794000
H       10.89243000       1.21213000      10.70143000       1.00794000
H        8.42296000       9.14044000       2.50012000       1.00794000
H       10.12393000       9.43531000       1.19796000       1.00794000
H        0.51927800       2.17722000       5.43858000       1.00794000
H        3.50564000       7.67180000       2.08339000       1.00794000
H        8.88862000       5.25752000      10.37403000       1.00794000
H        9.99270000       8.66635000       8.02428000       1.00794000
H        5.24886000       3.52619000       2.28069000       1.00794000
H        0.69694600       9.81952000       2.37772000       1.00794000
H        0.05561700      10.62233000       1.23178000       1.00794000
H        3.79636000      12.10893000       3.37819000       1.00794000
H        0.49608300       3.69565000       9.07390000       1.00794000
H       11.60783000      11.79093000       7.55642000       1.00794000
H        1.18084000       2.52173000       2.99923000       1.00794000
H        1.32362000       6.65847000       9.06673000       1.00794000
H        5.65469000       0.86142700       0.60775300       1.00794000
H        1.60467000       3.60704000      11.04353000       1.00794000
H       12.12443000       2.54075000       3.35627000       1.00794000
H        9.34518000       3.09369000       9.56126000       1.00794000
H        5.37546000       8.91202000       1.04115900       1.00794000
H        0.96257300       6.58707000       4.31370000       1.00794000
H       10.54493000       6.27984000       4.53357000       1.00794000
H        6.43653000       4.95000000      11.02893000       1.00794000
H        9.50731000      11.24653000       7.43965000       1.00794000
H        8.75306000       4.77505000       7.92070000       1.00794000
H        0.15508600       4.74127000       8.13951000       1.00794000
H        5.13937000      11.13733000       4.97064000       1.00794000
H       11.70163000       8.20254000       3.71393000       1.00794000
