192
Lattice="15.654 0.0 0.0 0.0 15.224 0.0 0.0 0.0 9.103" Properties=species:S:1:pos:R:3:mass:R:1 comment="ice 64 H2O config from DeepMD raw" pbc="T T T"
O        1.50809000       1.79435800       3.28870200      15.99940000
O        5.14621000       4.60815800       1.66352200      15.99940000
O        6.43152000       5.56203800       3.85375200      15.99940000
O        5.15121000       4.62312800       6.07531200      15.99940000
O        2.69818000       0.81705500       5.56534200      15.99940000
O        2.58215000       5.48363800       5.81804200      15.99940000
O        5.62040000       1.89180800       1.09808600      15.99940000
O        5.20759000       1.58826800       5.70856200      15.99940000
O        1.28685000       4.53193800       8.10838200      15.99940000
O        1.39194000       4.71662800       3.52679200      15.99940000
O        2.53006000       5.39352800       1.25936200      15.99940000
O        2.91212000       0.60873300       1.10954000      15.99940000
O        6.51810000       0.59438700       3.50832200      15.99940000
O        6.68344000       0.99432300       7.88198200      15.99940000
O        6.27887000       5.58226800       8.45510200      15.99940000
O        1.51976000       1.48085800       7.85805200      15.99940000
O        9.11732000       1.72715800       3.49468200      15.99940000
O       13.37448000       5.00880800       1.23870200      15.99940000
O       14.33268000       6.02649800       3.55398200      15.99940000
O       13.08478000       4.64681800       5.69069200      15.99940000
O       10.67218000       0.94438600       5.69778200      15.99940000
O       10.17525000       5.65167800       5.55609200      15.99940000
O       13.19678000       2.13007800       0.82890600      15.99940000
O       13.21478000       1.69044800       5.22999200      15.99940000
O        9.02823000       5.25269800       7.97148200      15.99940000
O        9.02783000       4.65694800       3.13828200      15.99940000
O       10.46898000       5.92451800       0.92474600      15.99940000
O       10.85328000       1.12836900       1.23905200      15.99940000
O       14.45228000       0.93780900       2.91631200      15.99940000
O       14.52648000       1.05835000       7.58963200      15.99940000
O       14.42118000       5.52478800       7.85438200      15.99940000
O        9.54123000       2.14553800       8.08497200      15.99940000
O        1.56869000       9.64008800       3.53000200      15.99940000
O        5.14202000      12.13519800       0.96779100      15.99940000
O        6.27081000      13.14689800       3.21868200      15.99940000
O        5.16512000      12.26429800       5.70967200      15.99940000
O        2.93551000       8.31311800       5.85067200      15.99940000
O        2.63842000      13.16539800       5.13453200      15.99940000
O        4.89636000       9.46164800       1.48788200      15.99940000
O        5.28315000       9.63253800       5.93590200      15.99940000
O        1.53017000      12.13019800       7.62510200      15.99940000
O        1.13524000      12.17629800       2.76157200      15.99940000
O        2.69876000      13.24129800       0.71235000      15.99940000
O        2.45273000       8.26534800       1.38839200      15.99940000
O        6.61919000       8.55438800       3.33070200      15.99940000
O        6.01970000       8.24706800       8.25064200      15.99940000
O        6.72362000      13.49049800       7.94329200      15.99940000
O        1.50262000       9.38658800       7.97225200      15.99940000
O        8.99958000       9.77177800       3.44588200      15.99940000
O       13.12918000      11.99689800       0.74359700      15.99940000
O       14.19728000      12.93619800       3.16796200      15.99940000
O       13.11398000      12.01839800       5.65758200      15.99940000
O       10.21398000       8.80423800       5.54130200      15.99940000
O       10.50328000      13.16429800       5.68181200      15.99940000
O       12.87868000       9.17375800       1.00310800      15.99940000
O       12.88658000       9.56005800       5.62911200      15.99940000
O        9.10815000      12.25469800       7.97519200      15.99940000
O        9.00267000      12.56939800       3.52532200      15.99940000
O       10.55638000      13.28989800       1.32592200      15.99940000
O       10.32768000       8.76614800       1.15541200      15.99940000
O       14.40988000       8.89236800       3.47306200      15.99940000
O       14.47748000       8.58309800       7.79410200      15.99940000
O       14.46208000      13.31449800       7.86466200      15.99940000
O        8.79213000       9.39415800       7.91095200      15.99940000
H        0.63749800       1.62019800       2.97669200       1.00794000
H        2.10700000       1.51917800       2.54219200       1.00794000
H        5.41456000       4.91233800       2.54571200       1.00794000
H        5.67333000       4.99182800       0.96014200       1.00794000
H        5.99739000       5.23265800       4.64439200       1.00794000
H        6.44300000       6.54197800       3.80681200       1.00794000
H        4.15066000       4.90694800       5.88592200       1.00794000
H        5.25862000       3.66336800       5.97127200       1.00794000
H        2.23153000       1.26730000       4.80909200       1.00794000
H        3.63724000       0.98750100       5.50513200       1.00794000
H        2.06380000       5.32160800       4.97503200       1.00794000
H        2.11023000       5.19564800       6.62608200       1.00794000
H        5.89128000       1.46772800       1.89957200       1.00794000
H        5.52800000       2.84913800       1.36700200       1.00794000
H        5.82303000       1.54905800       6.42354200       1.00794000
H        5.71824000       1.17443200       4.98624200       1.00794000
H        1.69600000       4.98760800       8.81443200       1.00794000
H        1.44463000       3.59459800       8.29054200       1.00794000
H        0.47712000       4.93053800       3.56786200       1.00794000
H        1.44989000       3.73842800       3.52888200       1.00794000
H        3.49691000       5.19180800       1.26542200       1.00794000
H        2.08469000       4.98517800       2.04364200       1.00794000
H        3.85062000       1.00676000       1.11870800       1.00794000
H        2.96124000      14.88859800       1.12695700       1.00794000
H        7.41477000       0.87457500       3.67845200       1.00794000
H        6.50720000      14.81349800       3.33179200       1.00794000
H        6.34298000       1.19991000       8.76410200       1.00794000
H        7.64005000       1.17940300       8.08292200       1.00794000
H        5.82830000       5.06653800       7.76473200       1.00794000
H        6.01526000       6.58165800       8.30754200       1.00794000
H        2.07035000       1.33326400       7.03255200       1.00794000
H        2.00349000       1.08342500       8.59536200       1.00794000
H        9.05655000       2.68779800       3.42292200       1.00794000
H        9.57272000       1.41194800       2.69700200       1.00794000
H       12.44668000       5.11873800       1.13490400       1.00794000
H       13.85798000       5.26206800       0.37241300       1.00794000
H       13.86828000       5.88333800       2.71602200       1.00794000
H       14.46778000       7.02329800       3.62461200       1.00794000
H       13.27168000       3.67044800       5.52134200       1.00794000
H       13.44948000       5.08449800       4.91243200       1.00794000
H       10.59808000      15.22119800       5.68041200       1.00794000
H       10.05071000       1.25410300       5.06072200       1.00794000
H       11.06258000       5.34897800       5.57924200       1.00794000
H        9.82041000       5.42341800       6.41585200       1.00794000
H       13.68268000       1.72676800       1.56629200       1.00794000
H       13.35388000       3.11555800       1.04281700       1.00794000
H       13.70708000       1.35022300       5.94602200       1.00794000
H       12.28598000       1.35878300       5.29196200       1.00794000
H        8.07113000       5.50503800       7.92958200       1.00794000
H        9.39271000       5.50335800       8.85319200       1.00794000
H        9.34133000       4.89848800       4.02631200       1.00794000
H        8.10361000       4.88519800       3.15130200       1.00794000
H       10.07827000       5.54092800       1.72324200       1.00794000
H       10.45588000       6.84695800       1.06269700       1.00794000
H       11.74668000       1.52713800       1.16135200       1.00794000
H       10.25668000       1.60360800       0.64000800       1.00794000
H       13.94258000       1.15623600       3.71229200       1.00794000
H       14.44288000      15.21232400       2.91624200       1.00794000
H       14.05578000       1.63736800       8.23823200       1.00794000
H       15.50878000       1.23745000       7.84847200       1.00794000
H       15.28358000       5.06472800       7.89276200       1.00794000
H       13.93138000       5.16734800       7.10581200       1.00794000
H       10.26468000       1.95326800       7.37510200       1.00794000
H        9.26350000       3.01245800       7.97582200       1.00794000
H        2.10823000       9.33391800       4.27620200       1.00794000
H        1.64709000       9.05975800       2.80203200       1.00794000
H        4.31120000      12.60339800       0.89695500       1.00794000
H        5.71490000      12.51329800       0.20706500       1.00794000
H        5.77091000      12.63179800       3.89180200       1.00794000
H        5.84369000      12.74489800       2.38317200       1.00794000
H        5.25256000      11.34769800       5.98239200       1.00794000
H        5.66930000      12.86179800       6.32014200       1.00794000
H        3.07403000       7.37583800       5.99164200       1.00794000
H        2.39408000       8.57202800       6.58519200       1.00794000
H        2.60188000      14.10719800       5.34928200       1.00794000
H        3.53449000      12.85069800       5.29087200       1.00794000
H        4.78248000      10.37320800       1.23885200       1.00794000
H        4.00647000       9.02077800       1.42176200       1.00794000
H        5.55896000       9.12000800       6.69629200       1.00794000
H        4.43362000       9.17028800       5.83984200       1.00794000
H        0.68244800      12.60799800       7.70274200       1.00794000
H        1.91722000      12.43959800       6.83260200       1.00794000
H        1.63154000      12.47859800       3.53613200       1.00794000
H        1.30134000      11.21509800       2.82132200       1.00794000
H        2.12930000      12.76149800       1.35562200       1.00794000
H        2.44539000      12.90319800       8.95407200       1.00794000
H        2.07210000       8.56540800       0.45970100       1.00794000
H        2.41157000       7.25909800       1.39654200       1.00794000
H        5.94656000       8.81799800       2.65659200       1.00794000
H        6.29259000       8.85618800       4.20107200       1.00794000
H        5.54894000       8.69212800       9.03245200       1.00794000
H        6.92427000       8.54079800       8.29253200       1.00794000
H        6.72797000      14.51599800       7.94505200       1.00794000
H        7.65590000      13.13929800       7.96263200       1.00794000
H        1.53037000      10.36870800       7.76249200       1.00794000
H        0.60280300       9.16211800       8.09335200       1.00794000
H        8.15208000       9.32919800       3.42593200       1.00794000
H        8.81638000      10.70939800       3.41673200       1.00794000
H       12.95838000      11.03179800       0.79997800       1.00794000
H       13.61108000      12.11979800       1.53769200       1.00794000
H       15.09458000      12.64719800       3.33037200       1.00794000
H       13.72958000      12.41979800       3.83420200       1.00794000
H       12.98638000      11.01899800       5.53927200       1.00794000
H       13.48788000      12.45029800       6.53538200       1.00794000
H       10.25878000       7.81850800       5.52203200       1.00794000
H        9.67914000       9.15744800       4.80201200       1.00794000
H       11.39778000      12.73989800       5.63330200       1.00794000
H        9.90041000      12.84009800       4.97118200       1.00794000
H       11.93698000       8.92987800       1.11152000       1.00794000
H       13.19248000       8.94986800       0.13341500       1.00794000
H       11.87438000       9.34575800       5.55657200       1.00794000
H       13.25518000       9.11451800       4.84539200       1.00794000
H        9.60412000      12.42199800       7.15188200       1.00794000
H        9.54188000      12.57279800       8.76091200       1.00794000
H        9.65583000      12.64499800       2.75874200       1.00794000
H        8.07536000      12.78109800       3.25776200       1.00794000
H       11.45498000      12.97059800       1.26822200       1.00794000
H       10.71158000      14.22929800       1.23490200       1.00794000
H        9.75278000       8.90518800       0.35474700       1.00794000
H        9.96698000       9.27353800       1.97552200       1.00794000
H       13.95328000       9.07582800       2.63623200       1.00794000
H       15.20238000       9.44448800       3.60618200       1.00794000
H       14.01798000       8.73165800       6.95961200       1.00794000
H       14.77278000       7.65849800       7.73500200       1.00794000
H       13.85248000      12.80339800       8.47190200       1.00794000
H       14.25928000      14.26319800       8.01061200       1.00794000
H        8.94997000      10.35142800       7.83642200       1.00794000
H        9.17004000       9.06967800       7.09010200       1.00794000
